0.00 11.23 12.21 25.71 40.00 46.73 46.96 56.12 53.61 63.20
11.23 0.00 3.98 14.59 28.79 35.93 36.00 45.34 42.89 52.52
12.21 3.98 0.00 15.54 29.04 37.08 36.89 46.43 44.09 53.71
25.71 14.59 15.54 0.00 14.39 21.55 21.45 30.92 28.56 38.18
40.00 28.79 29.04 14.39 0.00 10.64 9.21 18.71 16.94 25.98
46.73 35.93 37.08 21.55 10.64 0.00 2.43 9.41 7.01 16.63
46.96 36.00 36.89 21.45 9.21 2.43 0.00 9.69 7.74 17.03
56.12 45.34 46.43 30.92 18.71 9.41 9.69 0.00 2.70 7.34
53.61 42.89 44.09 28.56 16.94 7.01 7.74 2.70 0.00 9.63
63.20 52.52 53.71 38.18 25.98 16.63 17.03 7.34 9.63 0.00
